cases/pglib-opf/pglib_opf_case5_pjm.m
ipopt
ACR
[info | PowerModels]: extending matpower format with data: areas 1x3
[info | PowerModels]: removing 1 cost terms from generator 4: [4000.0, 0.0]
[info | PowerModels]: removing 1 cost terms from generator 1: [1400.0, 0.0]
[info | PowerModels]: removing 1 cost terms from generator 5: [1000.0, 0.0]
[info | PowerModels]: removing 1 cost terms from generator 2: [1500.0, 0.0]
[info | PowerModels]: removing 1 cost terms from generator 3: [3000.0, 0.0]

******************************************************************************
This program contains Ipopt, a library for large-scale nonlinear optimization.
 Ipopt is released as open source code under the Eclipse Public License (EPL).
         For more information visit http://projects.coin-or.org/Ipopt
******************************************************************************

This is Ipopt version 3.13.2, running with linear solver mumps.
NOTE: Other linear solvers might be more efficient (see Ipopt documentation).

Number of nonzeros in equality constraint Jacobian...:      299
Number of nonzeros in inequality constraint Jacobian.:      140
Number of nonzeros in Lagrangian Hessian.............:      236

Total number of variables............................:       44
                     variables with only lower bounds:        0
                variables with lower and upper bounds:       44
                     variables with only upper bounds:        0
Total number of equality constraints.................:       35
Total number of inequality constraints...............:       34
        inequality constraints with only lower bounds:       11
   inequality constraints with lower and upper bounds:        0
        inequality constraints with only upper bounds:       23

iter    objective    inf_pr   inf_du lg(mu)  ||d||  lg(rg) alpha_du alpha_pr  ls
   0  1.0059989e+02 3.99e+00 2.88e+01  -1.0 0.00e+00    -  0.00e+00 0.00e+00   0
   1  8.3066827e+03 2.47e+00 1.01e+02  -1.0 2.78e+00    -  4.11e-03 3.82e-01h  1
   2  6.7191397e+03 2.36e+00 9.62e+01  -1.0 1.60e+01    -  7.38e-02 4.45e-02f  1
   3  6.6709949e+03 2.30e+00 9.34e+01  -1.0 1.29e+01    -  4.95e-01 2.41e-02f  1
   4  6.5788285e+03 2.04e+00 8.25e+01  -1.0 1.29e+01    -  3.68e-01 1.12e-01f  2
   5  6.8338557e+03 1.79e+00 7.09e+01  -1.0 1.23e+01    -  8.72e-01 1.21e-01h  2
   6  8.8588074e+03 1.08e+00 4.21e+01  -1.0 9.14e+00    -  5.86e-01 4.00e-01h  1
   7  1.0561145e+04 8.64e-01 3.62e+01  -1.0 2.94e+00    -  5.25e-01 1.98e-01h  1
   8  1.7291697e+04 3.88e-02 1.46e+01  -1.0 2.42e+00    -  7.69e-01 9.55e-01h  1
   9  1.7576760e+04 1.43e-02 8.98e-01  -1.0 2.12e+00    -  1.00e+00 1.00e+00h  1
iter    objective    inf_pr   inf_du lg(mu)  ||d||  lg(rg) alpha_du alpha_pr  ls
  10  1.7565575e+04 1.71e-03 1.81e-01  -1.7 7.19e-01    -  1.00e+00 9.56e-01h  1
  11  1.7552778e+04 4.75e-03 5.15e-01  -2.5 1.69e-01    -  1.00e+00 1.00e+00h  1
  12  1.7552626e+04 2.10e-04 1.14e+00  -2.5 3.24e-02    -  1.00e+00 9.63e-01h  1
  13  1.7553056e+04 9.06e-06 1.46e+01  -2.5 4.36e-03    -  2.63e-01 1.00e+00f  1
  14  1.7553018e+04 2.49e-07 1.34e-03  -2.5 1.42e-03    -  1.00e+00 1.00e+00h  1
  15  1.7552019e+04 8.54e-06 1.72e+00  -3.8 2.42e-02    -  1.00e+00 8.76e-01f  1
  16  1.7551941e+04 3.53e-07 1.30e-02  -3.8 8.07e-03    -  1.00e+00 1.00e+00f  1
  17  1.7551943e+04 2.09e-09 5.37e-04  -3.8 7.46e-04    -  1.00e+00 1.00e+00h  1
  18  1.7551897e+04 3.17e-08 1.02e+00  -5.7 2.48e-03    -  1.00e+00 8.46e-01f  1
  19  1.7551891e+04 7.53e-10 9.51e-05  -5.7 5.38e-04    -  1.00e+00 1.00e+00f  1
iter    objective    inf_pr   inf_du lg(mu)  ||d||  lg(rg) alpha_du alpha_pr  ls
  20  1.7551891e+04 6.04e-14 4.96e-09  -5.7 1.41e-06    -  1.00e+00 1.00e+00h  1
  21  1.7551891e+04 3.51e-12 8.40e-04  -8.6 3.51e-05    -  1.00e+00 9.92e-01f  1
  22  1.7551891e+04 4.40e-14 2.65e-11  -8.6 2.99e-07    -  1.00e+00 1.00e+00f  1

Number of Iterations....: 22

                                   (scaled)                 (unscaled)
Objective...............:   4.3879727098644344e+02    1.7551890839457737e+04
Dual infeasibility......:   2.6517217259517182e-11    1.0606886903806873e-09
Constraint violation....:   1.4210869386833850e-14    4.3964831775156199e-14
Complementarity.........:   2.5061043559180678e-09    1.0024417423672271e-07
Overall NLP error.......:   2.5061043559180678e-09    1.0024417423672271e-07


Number of objective function evaluations             = 29
Number of objective gradient evaluations             = 23
Number of equality constraint evaluations            = 29
Number of inequality constraint evaluations          = 29
Number of equality constraint Jacobian evaluations   = 23
Number of inequality constraint Jacobian evaluations = 23
Number of Lagrangian Hessian evaluations             = 22
Total CPU secs in IPOPT (w/o function evaluations)   =      0.248
Total CPU secs in NLP function evaluations           =      0.213

EXIT: Optimal Solution Found.
Time to Solution........:1.164781093597412
